; PUSH cw_3 DUP1 SLOAD CALLER SWAP1 => PUSH cw_3 CALLER PUSH cw_3 SLOAD
(set-option :produce-proofs true)
; 
(set-info :status unknown)
(declare-fun storage_t ((_ BitVec 256) (_ BitVec 256) (_ BitVec 256) Int (_ BitVec 256)) (_ BitVec 256))
(declare-fun w_3 () (_ BitVec 256))
(declare-fun storage_s ((_ BitVec 256) (_ BitVec 256) (_ BitVec 256) Int (_ BitVec 256)) (_ BitVec 256))
(declare-fun exc_halt_t (Int) Bool)
(declare-fun exc_halt_s (Int) Bool)
(declare-fun stack_t ((_ BitVec 256) (_ BitVec 256) (_ BitVec 256) Int (_ BitVec 6)) (_ BitVec 256))
(declare-fun stack_s ((_ BitVec 256) (_ BitVec 256) (_ BitVec 256) Int (_ BitVec 6)) (_ BitVec 256))
(declare-fun sc_t (Int) (_ BitVec 6))
(declare-fun sc_s (Int) (_ BitVec 6))
(declare-fun used_gas_t ((_ BitVec 256) (_ BitVec 256) (_ BitVec 256) Int) Int)
(declare-fun used_gas_s ((_ BitVec 256) (_ BitVec 256) (_ BitVec 256) Int) Int)
(assert
 (exists ((x_SLOAD_0 (_ BitVec 256)) (x_CALLER (_ BitVec 256)) )(let (($x3477 (forall ((w (_ BitVec 256)) )(let ((?x1283 (storage_t x_SLOAD_0 w_3 x_CALLER 4 w)))
 (let ((?x5929 (storage_s x_SLOAD_0 w_3 x_CALLER 5 w)))
 (= ?x5929 ?x1283))))
 ))
 (let (($x7854 (exc_halt_t 4)))
 (let (($x11317 (exc_halt_s 5)))
 (let (($x8936 (= $x11317 $x7854)))
 (let (($x1338 (forall ((n (_ BitVec 6)) )(let ((?x11618 (stack_t x_SLOAD_0 w_3 x_CALLER 4 n)))
 (let ((?x8741 (stack_s x_SLOAD_0 w_3 x_CALLER 5 n)))
 (let (($x3839 (= ?x8741 ?x11618)))
 (let ((?x4818 (sc_t 4)))
 (let (($x1923 (bvsle ?x4818 n)))
 (or $x1923 $x3839)))))))
 ))
 (let ((?x4818 (sc_t 4)))
 (let ((?x4319 (sc_s 5)))
 (let (($x10544 (= ?x4319 ?x4818)))
 (let ((?x7292 (used_gas_t x_SLOAD_0 w_3 x_CALLER 0)))
 (let ((?x11377 (used_gas_s x_SLOAD_0 w_3 x_CALLER 0)))
 (let (($x2182 (= ?x11377 ?x7292)))
 (let (($x11084 (forall ((w (_ BitVec 256)) )(let ((?x2415 (storage_t x_SLOAD_0 w_3 x_CALLER 0 w)))
 (let ((?x1808 (storage_s x_SLOAD_0 w_3 x_CALLER 0 w)))
 (= ?x1808 ?x2415))))
 ))
 (let (($x56 (exc_halt_t 0)))
 (let (($x57 (exc_halt_s 0)))
 (let (($x58 (= $x57 $x56)))
 (let (($x7526 (forall ((n (_ BitVec 6)) )(let ((?x3361 (stack_t x_SLOAD_0 w_3 x_CALLER 0 n)))
 (let ((?x7523 (stack_s x_SLOAD_0 w_3 x_CALLER 0 n)))
 (let (($x3796 (= ?x7523 ?x3361)))
 (let ((?x63 (sc_t 0)))
 (let (($x2855 (bvsle ?x63 n)))
 (or $x2855 $x3796)))))))
 ))
 (let ((?x63 (sc_t 0)))
 (let ((?x72 (sc_s 0)))
 (let (($x73 (= ?x72 ?x63)))
 (let (($x1053 (= $x7854 (or (exc_halt_t 3) (not (bvsle (_ bv0 6) (bvadd (_ bv63 6) (sc_t 3))))))))
 (let (($x2209 (forall ((w (_ BitVec 256)) )(let ((?x3334 (storage_t x_SLOAD_0 w_3 x_CALLER 3 w)))
 (let ((?x1283 (storage_t x_SLOAD_0 w_3 x_CALLER 4 w)))
 (= ?x1283 ?x3334))))
 ))
 (let (($x10630 (forall ((n (_ BitVec 6)) )(let ((?x477 (stack_t x_SLOAD_0 w_3 x_CALLER 3 n)))
 (let ((?x11618 (stack_t x_SLOAD_0 w_3 x_CALLER 4 n)))
 (let (($x11796 (= ?x11618 ?x477)))
 (or (bvsle (bvadd (_ bv63 6) (sc_t 3)) n) $x11796)))))
 ))
 (let ((?x11159 (used_gas_t x_SLOAD_0 w_3 x_CALLER 4)))
 (let ((?x6438 (sc_t 3)))
 (let ((?x5797 (bvadd (_ bv63 6) ?x6438)))
 (let ((?x8130 (stack_t x_SLOAD_0 w_3 x_CALLER 3 ?x5797)))
 (let ((?x282 (bvadd (_ bv63 6) ?x4818)))
 (let ((?x7120 (stack_t x_SLOAD_0 w_3 x_CALLER 4 ?x282)))
 (let (($x7778 (not (= ((_ extract 6 6) (bvadd (_ bv1 7) (concat (_ bv0 1) (sc_t 2)))) (_ bv0 1)))))
 (let (($x2163 (exc_halt_t 2)))
 (let (($x6783 (exc_halt_t 3)))
 (let (($x2133 (= $x6783 (or $x2163 $x7778))))
 (let (($x4773 (forall ((w (_ BitVec 256)) )(let ((?x9134 (storage_t x_SLOAD_0 w_3 x_CALLER 2 w)))
 (let ((?x3334 (storage_t x_SLOAD_0 w_3 x_CALLER 3 w)))
 (= ?x3334 ?x9134))))
 ))
 (let (($x2790 (forall ((n (_ BitVec 6)) )(let ((?x11614 (stack_t x_SLOAD_0 w_3 x_CALLER 2 n)))
 (let ((?x477 (stack_t x_SLOAD_0 w_3 x_CALLER 3 n)))
 (let (($x6427 (= ?x477 ?x11614)))
 (let ((?x2714 (sc_t 2)))
 (let (($x1932 (bvsle ?x2714 n)))
 (or $x1932 $x6427)))))))
 ))
 (let (($x10335 (= ?x6438 (bvadd (_ bv1 6) (sc_t 2)))))
 (let ((?x11615 (used_gas_t x_SLOAD_0 w_3 x_CALLER 3)))
 (let (($x10139 (= ?x11615 (+ 3 (used_gas_t x_SLOAD_0 w_3 x_CALLER 2)))))
 (let (($x6916 (not (= ((_ extract 6 6) (bvadd (_ bv1 7) (concat (_ bv0 1) (sc_t 1)))) (_ bv0 1)))))
 (let (($x8377 (exc_halt_t 1)))
 (let (($x11314 (= $x2163 (or $x8377 $x6916))))
 (let (($x5925 (forall ((w (_ BitVec 256)) )(let ((?x6094 (storage_t x_SLOAD_0 w_3 x_CALLER 1 w)))
 (let ((?x9134 (storage_t x_SLOAD_0 w_3 x_CALLER 2 w)))
 (= ?x9134 ?x6094))))
 ))
 (let (($x1945 (forall ((n (_ BitVec 6)) )(let ((?x7154 (sc_t 1)))
 (let (($x1020 (bvsle ?x7154 n)))
 (let ((?x1828 (stack_t x_SLOAD_0 w_3 x_CALLER 1 n)))
 (let ((?x11614 (stack_t x_SLOAD_0 w_3 x_CALLER 2 n)))
 (let (($x81 (= ?x11614 ?x1828)))
 (or $x81 $x1020)))))))
 ))
 (let ((?x2714 (sc_t 2)))
 (let (($x135 (= ?x2714 (bvadd (_ bv1 6) (sc_t 1)))))
 (let ((?x11205 (used_gas_t x_SLOAD_0 w_3 x_CALLER 2)))
 (let (($x7349 (= $x8377 (or $x56 (not (= ((_ extract 6 6) (bvadd (_ bv1 7) (concat (_ bv0 1) ?x63))) (_ bv0 1)))))))
 (let (($x3586 (forall ((w (_ BitVec 256)) )(let ((?x2415 (storage_t x_SLOAD_0 w_3 x_CALLER 0 w)))
 (let ((?x6094 (storage_t x_SLOAD_0 w_3 x_CALLER 1 w)))
 (= ?x6094 ?x2415))))
 ))
 (let (($x2991 (forall ((n (_ BitVec 6)) )(let ((?x3361 (stack_t x_SLOAD_0 w_3 x_CALLER 0 n)))
 (let ((?x1828 (stack_t x_SLOAD_0 w_3 x_CALLER 1 n)))
 (let ((?x63 (sc_t 0)))
 (let (($x2855 (bvsle ?x63 n)))
 (or $x2855 (= ?x1828 ?x3361)))))))
 ))
 (let ((?x7154 (sc_t 1)))
 (let (($x6089 (= ?x7154 (bvadd (_ bv1 6) ?x63))))
 (let ((?x1008 (used_gas_t x_SLOAD_0 w_3 x_CALLER 1)))
 (let (($x3666 (= ?x1008 (+ 3 ?x7292))))
 (let (($x6694 (= (stack_t x_SLOAD_0 w_3 x_CALLER 1 ?x63) w_3)))
 (let (($x8880 (= $x11317 (or (exc_halt_s 4) (not (bvsle (_ bv0 6) (bvadd (_ bv62 6) (sc_s 4))))))))
 (let (($x6401 (forall ((w (_ BitVec 256)) )(let ((?x9478 (storage_s x_SLOAD_0 w_3 x_CALLER 4 w)))
 (let ((?x5929 (storage_s x_SLOAD_0 w_3 x_CALLER 5 w)))
 (= ?x5929 ?x9478))))
 ))
 (let (($x4649 (forall ((n (_ BitVec 6)) )(let ((?x8223 (stack_s x_SLOAD_0 w_3 x_CALLER 4 n)))
 (let ((?x8741 (stack_s x_SLOAD_0 w_3 x_CALLER 5 n)))
 (let (($x8198 (= ?x8741 ?x8223)))
 (let ((?x4305 (sc_s 4)))
 (let ((?x5394 (bvadd (_ bv62 6) ?x4305)))
 (let (($x53 (bvsle ?x5394 n)))
 (or $x53 $x8198))))))))
 ))
 (let ((?x4305 (sc_s 4)))
 (let (($x9760 (= ?x4319 ?x4305)))
 (let ((?x8628 (used_gas_s x_SLOAD_0 w_3 x_CALLER 5)))
 (let (($x1989 (= ?x8628 (+ 3 (used_gas_s x_SLOAD_0 w_3 x_CALLER 4)))))
 (let ((?x4388 (bvadd (_ bv63 6) ?x4305)))
 (let ((?x3529 (stack_s x_SLOAD_0 w_3 x_CALLER 4 ?x4388)))
 (let ((?x4138 (bvadd (_ bv62 6) ?x4319)))
 (let ((?x1114 (stack_s x_SLOAD_0 w_3 x_CALLER 5 ?x4138)))
 (let ((?x8324 (bvadd (_ bv63 6) ?x4319)))
 (let ((?x5390 (stack_s x_SLOAD_0 w_3 x_CALLER 5 ?x8324)))
 (let (($x292 (exc_halt_s 3)))
 (let (($x10433 (or $x292 (not (= ((_ extract 6 6) (bvadd (_ bv1 7) (concat (_ bv0 1) (sc_s 3)))) (_ bv0 1))))))
 (let (($x7172 (exc_halt_s 4)))
 (let (($x4250 (= $x7172 $x10433)))
 (let (($x11062 (forall ((w (_ BitVec 256)) )(let ((?x1884 (storage_s x_SLOAD_0 w_3 x_CALLER 3 w)))
 (let ((?x9478 (storage_s x_SLOAD_0 w_3 x_CALLER 4 w)))
 (= ?x9478 ?x1884))))
 ))
 (let (($x10329 (forall ((n (_ BitVec 6)) )(let ((?x11624 (stack_s x_SLOAD_0 w_3 x_CALLER 3 n)))
 (let ((?x8223 (stack_s x_SLOAD_0 w_3 x_CALLER 4 n)))
 (let (($x8705 (= ?x8223 ?x11624)))
 (let ((?x275 (sc_s 3)))
 (let (($x4015 (bvsle ?x275 n)))
 (or $x4015 $x8705)))))))
 ))
 (let (($x3432 (= ?x4305 (bvadd (_ bv1 6) (sc_s 3)))))
 (let ((?x2265 (used_gas_s x_SLOAD_0 w_3 x_CALLER 4)))
 (let (($x9269 (= $x292 (or (exc_halt_s 2) (not (bvsle (_ bv0 6) (bvadd (_ bv63 6) (sc_s 2))))))))
 (let (($x921 (forall ((w (_ BitVec 256)) )(let ((?x9751 (storage_s x_SLOAD_0 w_3 x_CALLER 2 w)))
 (let ((?x1884 (storage_s x_SLOAD_0 w_3 x_CALLER 3 w)))
 (= ?x1884 ?x9751))))
 ))
 (let (($x6450 (forall ((n (_ BitVec 6)) )(let ((?x260 (stack_s x_SLOAD_0 w_3 x_CALLER 2 n)))
 (let ((?x11624 (stack_s x_SLOAD_0 w_3 x_CALLER 3 n)))
 (let (($x11517 (= ?x11624 ?x260)))
 (let ((?x218 (sc_s 2)))
 (let ((?x7113 (bvadd (_ bv63 6) ?x218)))
 (let (($x10404 (bvsle ?x7113 n)))
 (or $x10404 $x11517))))))))
 ))
 (let ((?x218 (sc_s 2)))
 (let ((?x275 (sc_s 3)))
 (let (($x6815 (= ?x275 ?x218)))
 (let ((?x9595 (used_gas_s x_SLOAD_0 w_3 x_CALLER 3)))
 (let ((?x7113 (bvadd (_ bv63 6) ?x218)))
 (let ((?x11642 (stack_s x_SLOAD_0 w_3 x_CALLER 2 ?x7113)))
 (let ((?x9635 (bvadd (_ bv63 6) ?x275)))
 (let ((?x685 (stack_s x_SLOAD_0 w_3 x_CALLER 3 ?x9635)))
 (let (($x7459 (not (bvsle (_ bv0 6) (bvadd (_ bv63 6) (sc_s 1))))))
 (let (($x1803 (not (= ((_ extract 6 6) (bvadd (_ bv1 7) (concat (_ bv0 1) (sc_s 1)))) (_ bv0 1)))))
 (let (($x189 (exc_halt_s 1)))
 (let (($x247 (exc_halt_s 2)))
 (let (($x355 (= $x247 (or $x189 $x1803 $x7459))))
 (let (($x157 (forall ((w (_ BitVec 256)) )(let ((?x2567 (storage_s x_SLOAD_0 w_3 x_CALLER 1 w)))
 (let ((?x9751 (storage_s x_SLOAD_0 w_3 x_CALLER 2 w)))
 (= ?x9751 ?x2567))))
 ))
 (let (($x2086 (forall ((n (_ BitVec 6)) )(let ((?x154 (sc_s 1)))
 (let ((?x11673 (bvadd (_ bv63 6) ?x154)))
 (let (($x10494 (bvsle ?x11673 n)))
 (let ((?x8755 (stack_s x_SLOAD_0 w_3 x_CALLER 1 n)))
 (let ((?x260 (stack_s x_SLOAD_0 w_3 x_CALLER 2 n)))
 (let (($x4135 (= ?x260 ?x8755)))
 (or $x4135 $x10494))))))))
 ))
 (let (($x11672 (= ?x218 (bvadd (_ bv1 6) (sc_s 1)))))
 (let ((?x9057 (used_gas_s x_SLOAD_0 w_3 x_CALLER 2)))
 (let ((?x154 (sc_s 1)))
 (let ((?x11673 (bvadd (_ bv63 6) ?x154)))
 (let ((?x8554 (stack_s x_SLOAD_0 w_3 x_CALLER 1 ?x11673)))
 (let (($x9208 (= $x189 (or $x57 (not (= ((_ extract 6 6) (bvadd (_ bv1 7) (concat (_ bv0 1) ?x72))) (_ bv0 1)))))))
 (let (($x1961 (forall ((w (_ BitVec 256)) )(let ((?x1808 (storage_s x_SLOAD_0 w_3 x_CALLER 0 w)))
 (let ((?x2567 (storage_s x_SLOAD_0 w_3 x_CALLER 1 w)))
 (= ?x2567 ?x1808))))
 ))
 (let (($x11541 (forall ((n (_ BitVec 6)) )(let ((?x72 (sc_s 0)))
 (let (($x10612 (bvsle ?x72 n)))
 (let ((?x7523 (stack_s x_SLOAD_0 w_3 x_CALLER 0 n)))
 (let ((?x8755 (stack_s x_SLOAD_0 w_3 x_CALLER 1 n)))
 (or (= ?x8755 ?x7523) $x10612))))))
 ))
 (let (($x6169 (= ?x154 (bvadd (_ bv1 6) ?x72))))
 (let ((?x5069 (used_gas_s x_SLOAD_0 w_3 x_CALLER 1)))
 (let (($x2073 (= ?x5069 (+ 3 ?x11377))))
 (let (($x4032 (= (stack_s x_SLOAD_0 w_3 x_CALLER 1 ?x72) w_3)))
 (let (($x3913 (forall ((w (_ BitVec 256)) )(let ((?x8090 (ite (= w (stack_s x_SLOAD_0 w_3 x_CALLER 2 (bvadd (_ bv63 6) (sc_s 2)))) x_SLOAD_0 (_ bv0 256))))
 (let ((?x1808 (storage_s x_SLOAD_0 w_3 x_CALLER 0 w)))
 (= ?x1808 ?x8090))))
 ))
 (let (($x1660 (= ?x11377 0)))
 (let (($x10766 (not $x57)))
 (let (($x5849 (= ?x72 (_ bv0 6))))
 (and $x5849 $x10766 $x1660 $x3913 $x4032 $x2073 $x6169 $x11541 $x1961 $x9208 (= ?x11642 ?x8554) (= (stack_s x_SLOAD_0 w_3 x_CALLER 2 ?x11673) ?x8554) (= ?x9057 (+ 3 ?x5069)) $x11672 $x2086 $x157 $x355 (= ?x685 (storage_s x_SLOAD_0 w_3 x_CALLER 2 ?x11642)) (= ?x9595 (+ 200 ?x9057)) $x6815 $x6450 $x921 $x9269 (= (stack_s x_SLOAD_0 w_3 x_CALLER 4 ?x275) x_CALLER) (= ?x2265 (+ 2 ?x9595)) $x3432 $x10329 $x11062 $x4250 (= ?x5390 (stack_s x_SLOAD_0 w_3 x_CALLER 4 (bvadd (_ bv62 6) ?x4305))) (= ?x1114 ?x3529) $x1989 $x9760 $x4649 $x6401 $x8880 $x6694 $x3666 $x6089 $x2991 $x3586 $x7349 (= (stack_t x_SLOAD_0 w_3 x_CALLER 2 ?x7154) x_CALLER) (= ?x11205 (+ 2 ?x1008)) $x135 $x1945 $x5925 $x11314 (= (stack_t x_SLOAD_0 w_3 x_CALLER 3 ?x2714) w_3) $x10139 $x10335 $x2790 $x4773 $x2133 (= ?x7120 (storage_t x_SLOAD_0 w_3 x_CALLER 3 ?x8130)) (= ?x11159 (+ 200 ?x11615)) (= ?x4818 ?x6438) $x10630 $x2209 $x1053 $x73 $x7526 $x58 $x11084 $x2182 (not (and $x10544 $x1338 $x8936 $x3477))))))))))))))))))))))))))))))))))))))))))))))))))))))))))))))))))))))))))))))))))))))))))))))))))))))))))))))))
 )
(check-sat)
(get-proof)
